words_hard_train/5069.qaiger
aag 23 10 0 1 13
2
4
8
10
16
18
22
24
28
34
46
6 2 4
12 8 11
14 7 13
20 16 18
26 22 24
30 26 28
32 20 30
36 32 34
38 3 5
40 36 39
42 14 41
44 9 10
46 43 45
i0 2 y2[0]
i1 1 x2[6]
i2 2 y2[1]
i3 1 x2[7]
i4 1 x2[1]
i5 1 x2[2]
i6 1 x2[3]
i7 1 x2[5]
i8 1 x2[0]
i9 1 x2[4]
o0 bv[0]
c
simplified
  >=
    1 x2
    add
      << 6
        2 y2
      add
        1
        1 x2
