words_hard_train/5069.qaiger.qdimacs
p cnf 23 40
a 2 5 8 9 11 12 14 17 0
e 1 3 4 6 7 10 13 15 16 18 19 20 21 22 23 0
-1 -2 3 0
1 -3 0
2 -3 0
-4 5 6 0
4 -6 0
-5 -6 0
3 6 7 0
-3 -7 0
-6 -7 0
-8 -9 10 0
8 -10 0
9 -10 0
-11 -12 13 0
11 -13 0
12 -13 0
-13 -14 15 0
13 -15 0
14 -15 0
-10 -15 16 0
10 -16 0
15 -16 0
-16 -17 18 0
16 -18 0
17 -18 0
1 2 19 0
-1 -19 0
-2 -19 0
-18 19 20 0
18 -20 0
-19 -20 0
-7 20 21 0
7 -21 0
-20 -21 0
4 -5 22 0
-4 -22 0
5 -22 0
21 22 23 0
-21 -23 0
-22 -23 0
23 0
